(set-logic HORN)
(declare-fun state (Int (Array Int Int) (Array Int Int) (Array Int Int) (Array Int Int) Int Int (Array Int Int) (Array Int Int) Int Int (Array Int Int) (Array Int Int) Int Int Int Int Int Int Int Int Int Int Int Int Int Int Int Int Int Int Int Int Int Int Int Int Int Int Int Bool Int Int Int Int Int Int Int Int Int Int Int Int Int Bool Bool Bool Bool Bool Bool Int) Bool)
(assert (forall ((|A_18| Int) (|B_18| (Array Int Int)) (|C_18| (Array Int Int)) (|D_18| (Array Int Int)) (|E_18| (Array Int Int)) (|F_18| Int) (|G_18| Int) (|H_18| (Array Int Int)) (|I_18| (Array Int Int)) (|J_18| Int) (|K_18| Int) (|L_18| (Array Int Int)) (|M_18| (Array Int Int)) (|N_18| Int) (|O_18| Int) (|D2_11| Int) (|Q_18| Int) (|R_18| Int) (|S_18| Int) (|T_18| Int) (|U_18| Int) (|V_18| Int) (|W_18| Int) (|X_18| Int) (|Y_18| Int) (|Z_18| Int) (|A1_18| Int) (|B1_18| Int) (|C1_18| Int) (|D1_18| Int) (|E1_18| Int) (|F1_18| Int) (|G1_18| Int) (|H1_18| Int) (|I1_18| Int) (|J1_18| Int) (|K1_18| Int) (|L1_18| Int) (|M1_18| Int) (|N1_18| Int) (|O1_18| Bool) (|P1_18| Int) (|Q1_18| Int) (|R1_18| Int) (|S1_18| Int) (|T1_18| Int) (|U1_18| Int) (|V1_18| Int) (|W1_18| Int) (|X1_18| Int) (|Y1_18| Int) (|Z1_18| Int) (|A2_18| Int) (|B2_18| Int) (|C2_18| Bool) (|.loc.5| Bool) (|.loc.6| Bool) (|.loc.7| Bool) (|.loc.8| Bool) (|D2_3| Bool) (|D2_13| Int) (|.x.1233| Int) (|.x.1210| Int) (|.x.1201| (Array Int Int)) (|.x.1199| Int) (|.x.1197| (Array Int Int)) (|.x.1195| Int) (|.x.1193| (Array Int Int)) (|.x.1189| Int) (|.x.1191| (Array Int Int)) (|.x.1211| Int) (|.x.1204| Int) (|C2_22| Bool) (|.x.1220| Int) (|.x.1237| Int) (|.x.1235| Int) (|.loc.9| Bool) (|.loc.10| Bool) (|.x.1192| (Array Int Int)) (|.x.1203| Int) (|.x.1214| Int) (|.x.1223| Int) (|.x.1225| Int) (|.x.1231| Int) (|.x.1239| Int) (|.x.1224| Int) (|.x.1213| Int) (|.x.1226| Int) (|.x.1221| Int) (|.loc.11| Bool) (|.loc.12| Bool) (|.x.1209| Int) (|.x.1207| Int) (|.x.1216| Int) (|.x.1218| Int) (|.x.1219| Int) (|.x.1236| Int) (|.x.1206| Int) (|.x.1202| Int) (|.x.1208| Int) (|.x.1222| Int) (|.x.1232| Int) (|.x.1241| Int) (|.x.1212| Int) (|.x.1200| (Array Int Int)) (|.x.1190| (Array Int Int)) (|.x.1196| (Array Int Int)) (|.x.1215| Int) (|.x.1217| Int) (|.x.1227| Int) (|.x.1228| Int) (|.x.1230| Int) (|.x.1240| Int) (|.x.1242| Int) (|.x.1238| Int) (|.x.1229| Bool) (|.x.1205| Int) (|.x.1234| Int) (|.x.1194| Int) (|.x.1198| Int) (|.xtv.1| Bool) (|.xtv.2| Int)) (=> (and (and (and (and (not .loc.6) (not .loc.5)) (not .loc.7)) (not .loc.8)) (and (and (and (and (and (and (= B_18 C_18) (not C2_18)) (= F_18 G_18)) (= J_18 K_18)) (= D_18 E_18)) (= L_18 M_18)) (= H_18 I_18))) (state |A_18| |B_18| |C_18| |D_18| |E_18| |F_18| |G_18| |H_18| |I_18| |J_18| |K_18| |L_18| |M_18| |N_18| |O_18| |D2_11| |Q_18| |R_18| |S_18| |T_18| |U_18| |V_18| |W_18| |X_18| |Y_18| |Z_18| |A1_18| |B1_18| |C1_18| |D1_18| |E1_18| |F1_18| |G1_18| |H1_18| |I1_18| |J1_18| |K1_18| |L1_18| |M1_18| |N1_18| |O1_18| |P1_18| |Q1_18| |R1_18| |S1_18| |T1_18| |U1_18| |V1_18| |W1_18| |X1_18| |Y1_18| |Z1_18| |A2_18| |B2_18| |C2_18| |.loc.5| |.loc.6| |.loc.7| |.loc.8| |D2_3| |D2_13|))))
(assert (forall ((|A_18| Int) (|B_18| (Array Int Int)) (|C_18| (Array Int Int)) (|D_18| (Array Int Int)) (|E_18| (Array Int Int)) (|F_18| Int) (|G_18| Int) (|H_18| (Array Int Int)) (|I_18| (Array Int Int)) (|J_18| Int) (|K_18| Int) (|L_18| (Array Int Int)) (|M_18| (Array Int Int)) (|N_18| Int) (|O_18| Int) (|D2_11| Int) (|Q_18| Int) (|R_18| Int) (|S_18| Int) (|T_18| Int) (|U_18| Int) (|V_18| Int) (|W_18| Int) (|X_18| Int) (|Y_18| Int) (|Z_18| Int) (|A1_18| Int) (|B1_18| Int) (|C1_18| Int) (|D1_18| Int) (|E1_18| Int) (|F1_18| Int) (|G1_18| Int) (|H1_18| Int) (|I1_18| Int) (|J1_18| Int) (|K1_18| Int) (|L1_18| Int) (|M1_18| Int) (|N1_18| Int) (|O1_18| Bool) (|P1_18| Int) (|Q1_18| Int) (|R1_18| Int) (|S1_18| Int) (|T1_18| Int) (|U1_18| Int) (|V1_18| Int) (|W1_18| Int) (|X1_18| Int) (|Y1_18| Int) (|Z1_18| Int) (|A2_18| Int) (|B2_18| Int) (|C2_18| Bool) (|.loc.5| Bool) (|.loc.6| Bool) (|.loc.7| Bool) (|.loc.8| Bool) (|D2_3| Bool) (|D2_13| Int) (|.x.1233| Int) (|.x.1210| Int) (|.x.1201| (Array Int Int)) (|.x.1199| Int) (|.x.1197| (Array Int Int)) (|.x.1195| Int) (|.x.1193| (Array Int Int)) (|.x.1189| Int) (|.x.1191| (Array Int Int)) (|.x.1211| Int) (|.x.1204| Int) (|C2_22| Bool) (|.x.1220| Int) (|.x.1237| Int) (|.x.1235| Int) (|.loc.9| Bool) (|.loc.10| Bool) (|.x.1192| (Array Int Int)) (|.x.1203| Int) (|.x.1214| Int) (|.x.1223| Int) (|.x.1225| Int) (|.x.1231| Int) (|.x.1239| Int) (|.x.1224| Int) (|.x.1213| Int) (|.x.1226| Int) (|.x.1221| Int) (|.loc.11| Bool) (|.loc.12| Bool) (|.x.1209| Int) (|.x.1207| Int) (|.x.1216| Int) (|.x.1218| Int) (|.x.1219| Int) (|.x.1236| Int) (|.x.1206| Int) (|.x.1202| Int) (|.x.1208| Int) (|.x.1222| Int) (|.x.1232| Int) (|.x.1241| Int) (|.x.1212| Int) (|.x.1200| (Array Int Int)) (|.x.1190| (Array Int Int)) (|.x.1196| (Array Int Int)) (|.x.1215| Int) (|.x.1217| Int) (|.x.1227| Int) (|.x.1228| Int) (|.x.1230| Int) (|.x.1240| Int) (|.x.1242| Int) (|.x.1238| Int) (|.x.1229| Bool) (|.x.1205| Int) (|.x.1234| Int) (|.x.1194| Int) (|.x.1198| Int) (|.xtv.1| Bool) (|.xtv.2| Int)) (=> (and (state |A_18| |B_18| |C_18| |D_18| |E_18| |F_18| |G_18| |H_18| |I_18| |J_18| |K_18| |L_18| |M_18| |N_18| |O_18| |D2_11| |Q_18| |R_18| |S_18| |T_18| |U_18| |V_18| |W_18| |X_18| |Y_18| |Z_18| |A1_18| |B1_18| |C1_18| |D1_18| |E1_18| |F1_18| |G1_18| |H1_18| |I1_18| |J1_18| |K1_18| |L1_18| |M1_18| |N1_18| |O1_18| |P1_18| |Q1_18| |R1_18| |S1_18| |T1_18| |U1_18| |V1_18| |W1_18| |X1_18| |Y1_18| |Z1_18| |A2_18| |B2_18| |C2_18| |.loc.5| |.loc.6| |.loc.7| |.loc.8| |D2_3| |D2_13|) (let ((.def_71 (not .loc.6))) (let ((.def_72 (not .loc.5))) (let ((.def_74 (not .loc.7))) (let ((.def_76 (not .loc.8))) (let ((.def_119 (= D2_13 .x.1211))) (let ((.def_130 (and (and (<= D2_13 2147483647) (<= (- 2147483648) D2_13)) (= D2_13 .x.1204)))) (let ((.def_133 (or C2_18 (= U_18 .x.1204)))) (let ((.def_137 (= F1_18 .x.1220))) (let ((.def_148 (= C2_18 C2_22))) (let ((.def_151 (= W1_18 .x.1237))) (let ((.def_153 (= D2_11 .x.1204))) (let ((.def_158 (= U1_18 .x.1235))) (let ((.def_172 (not .loc.9))) (let ((.def_198 (not .loc.10))) (let ((.def_201 (= K1_18 0))) (let ((.def_202 (= Z_18 0))) (let ((.def_206 (and .loc.8 (and .def_137 .def_158)))) (let ((.def_218 (= D_18 .x.1192))) (let ((.def_220 (= O_18 .x.1203))) (let ((.def_221 (and .def_218 .def_220))) (let ((.def_223 (= Z_18 .x.1214))) (let ((.def_226 (= I1_18 .x.1223))) (let ((.def_229 (= K1_18 .x.1225))) (let ((.def_232 (= Q1_18 .x.1231))) (let ((.def_235 (= Y1_18 .x.1239))) (let ((.def_268 (= J1_18 .x.1224))) (let ((.def_270 (= Y_18 .x.1213))) (let ((.def_299 (not .loc.11))) (let ((.def_303 (and C2_18 .def_218))) (let ((.def_324 (not .loc.12))) (let ((.def_327 (= E1_18 0))) (let ((.def_328 (= B1_18 0))) (let ((.def_339 (and .def_235 (and .def_158 (and .def_232 (and .def_229 (and .def_268 (and .def_226 (and .def_137 (and .def_223 (and .def_221 .def_270))))))))))) (let ((.def_342 (and .def_76 (and .loc.7 (and .loc.6 .def_339))))) (let ((.def_354 (= U_18 .x.1209))) (let ((.def_356 (= S_18 .x.1207))) (let ((.def_359 (= B1_18 .x.1216))) (let ((.def_362 (= D1_18 .x.1218))) (let ((.def_365 (= E1_18 .x.1219))) (let ((.def_368 (= V1_18 .x.1236))) (let ((.def_400 (= R_18 .x.1206))) (let ((.def_402 (= N_18 .x.1202))) (let ((.def_405 (= T_18 .x.1208))) (let ((.def_407 (= G1_18 .x.1221))) (let ((.def_410 (= H1_18 .x.1222))) (let ((.def_412 (= L1_18 .x.1226))) (let ((.def_415 (= R1_18 .x.1232))) (let ((.def_418 (= A2_18 .x.1241))) (let ((.def_488 (<= M1_18 0))) (let ((.def_528 (= X_18 .x.1212))) (let ((.def_530 (= L_18 .x.1200))) (let ((.def_532 (= B_18 .x.1190))) (let ((.def_534 (= H_18 .x.1196))) (let ((.def_536 (and .def_530 (and .def_532 .def_534)))) (let ((.def_539 (= A1_18 .x.1215))) (let ((.def_542 (= C1_18 .x.1217))) (let ((.def_545 (= M1_18 .x.1227))) (let ((.def_548 (= N1_18 .x.1228))) (let ((.def_551 (= P1_18 .x.1230))) (let ((.def_554 (= Z1_18 .x.1240))) (let ((.def_557 (= B2_18 .x.1242))) (let ((.def_647 (= X1_18 .x.1238))) (let ((.def_659 (and .def_530 (and .def_534 (and .def_218 .def_532))))) (let ((.def_696 (= O1_18 .x.1229))) (let ((.def_698 (= Q_18 .x.1205))) (let ((.def_704 (and .def_220 (and .def_402 .def_659)))) (let ((.def_738 (and .loc.9 (and .def_76 (and .loc.6 (and .def_557 (and .def_418 (and .def_554 (and .def_235 (and .def_647 (and .def_368 (and .def_158 (and .def_415 (and .def_232 (and .def_551 (and .def_548 (and .def_545 (and .def_412 (and .def_229 (and .def_268 (and .def_226 (and .def_410 (and .def_407 (and .def_137 (and .def_365 (and .def_362 (and .def_542 (and .def_359 (and .def_539 (and .def_223 (and .def_270 (and .def_528 (and .def_354 (and .def_405 (and .def_356 (and .def_400 .def_704)))))))))))))))))))))))))))))))))))) (let ((.def_802 (not (<= 32 W_18)))) (let ((.def_856 (and .def_324 (and .def_71 (and .def_172 (and .def_153 (and .def_151 (and .def_148 (and .def_74 (and .def_299 (and .loc.10 (and .def_76 (and .loc.5 (and .def_557 (and .def_418 (and .def_554 (and .def_235 (and .def_647 (and .def_368 (and .def_158 (and .def_415 (and .def_232 (and .def_551 (and .def_548 (and .def_545 (and .def_412 (and .def_229 (and .def_268 (and .def_226 (and .def_410 (and .def_407 (and .def_137 (and .def_365 (and .def_362 (and .def_542 (and .def_359 (and .def_539 (and .def_223 (and .def_270 (and .def_528 (and .def_354 (and .def_405 (and .def_356 (and .def_400 (and .def_698 .def_704))))))))))))))))))))))))))))))))))))))))))))) (and (and (= S1_18 .x.1233) (and (= V_18 .x.1210) (and (= M_18 .x.1201) (and (= K_18 .x.1199) (and (= I_18 .x.1197) (and (= G_18 .x.1195) (and (= E_18 .x.1193) (and (= A_18 .x.1189) (= C_18 .x.1191))))))))) (or (and (or (and (or (or (or (or (and (or (and (or (and (or (or (or (and (or (and (or (or (and (or (and (or (and (or (or (and (or (or (and (or (and .def_76 (and .loc.7 (and .loc.5 (and (or C2_18 (not .def_119)) (and (or C2_18 .def_130) (and (and .def_133 C2_22) .def_137)))))) (and (or C2_18 (= U1_18 .x.1220)) (and (and (and (and .def_72 (and .loc.8 .def_74)) .def_148) .def_151) .def_153))) (and (and .loc.6 .def_158) .loc.9)) (and (or C2_18 (= .x.1235 0)) (and .def_71 (and (and .def_153 (and .def_151 (and .def_148 (and .def_74 (and .loc.8 (and .loc.5 .def_137)))))) .def_172)))) (and .def_172 (and .def_76 (and .loc.7 (and .loc.6 (and .loc.5 (and .def_137 (and .def_133 (and C2_18 C2_22))))))))) .loc.10) (and (and .def_71 (and .def_153 (and .def_151 (and .def_148 (and .def_72 (and .def_74 (and .loc.9 (and .loc.8 (and .def_158 (and C2_18 .def_137)))))))))) .def_198)) (and (or C2_18 (and .def_201 .def_202)) (and .def_198 (and .def_71 (and .def_153 (and .def_151 (and .def_148 (and .def_72 (and .def_74 (and .loc.9 .def_206)))))))))) (and (and (and (and (and .def_221 .def_223) .def_226) .def_229) .def_232) .def_235)) (and (or C2_18 (and (= .x.1192 (store D_18 K1_18 0)) (and (= .x.1223 (select (select L_18 K1_18) Z_18)) (and (= .x.1231 (select (select B_18 K1_18) Z_18)) (and (= .x.1214 .x.1223) (and (or (not .def_201) (not .def_202)) (= .x.1225 .x.1231))))))) (and .def_198 (and .def_71 (and .def_172 (and .def_153 (and .def_151 (and .def_148 (and .def_72 (and .def_74 .def_206)))))))))) (and .def_268 .def_270)) (and (or .def_130 C2_22) (and (or C2_22 (and .def_119 (and (and (and (= .x.1224 .x.1226) (= .x.1225 .x.1224)) (= .x.1213 .x.1221)) (= .x.1214 .x.1213)))) (and .def_198 (and .def_172 (and .def_148 (and .def_76 (and .loc.7 (and .loc.6 (and .loc.5 (and .def_158 (and .def_137 (and .def_133 .def_218))))))))))))) (and .def_299 .loc.12)) (and (and .def_153 (and .def_151 (and .def_148 (and .def_72 (and .loc.11 (and .loc.10 (and .loc.9 (and .def_76 (and .loc.7 (and .loc.6 (and .def_235 (and .def_158 (and .def_232 (and .def_229 (and .def_268 (and .def_226 (and .def_137 (and .def_223 (and .def_270 (and .def_220 .def_303)))))))))))))))))))) .def_324)) (and (or C2_18 (and .def_327 .def_328)) (and .def_324 (and .def_153 (and .def_151 (and .def_148 (and .def_72 (and .loc.11 (and .loc.10 (and .loc.9 .def_342)))))))))) (and (and (and (and (and .def_354 .def_356) .def_359) .def_362) .def_365) .def_368)) (and (or C2_18 (and (= .x.1216 (select (select B_18 B1_18) E1_18)) (and (= (+ U_18 (* (- 1) .x.1209)) (- 1)) (and (or (not .def_327) (not .def_328)) (= .x.1219 (select (select L_18 B1_18) E1_18)))))) (and .def_324 (and .def_172 (and .def_153 (and .def_151 (and .def_148 (and .def_72 (and .loc.11 (and .loc.10 .def_342)))))))))) (and (and (and (and (and (and (and .def_400 .def_402) .def_405) .def_407) .def_410) .def_412) .def_415) .def_418)) (and (or C2_18 (and (= B2_18 .x.1222) (= C1_18 .x.1202))) (and (or C2_22 (and (and (and (and (and (= .x.1221 .x.1222) (and (= .x.1221 .x.1208) (= .x.1216 .x.1206))) (= .x.1219 .x.1208)) (= .x.1226 .x.1202)) (= .x.1209 0)) (= .x.1226 .x.1206))) (and .def_324 (and .def_71 (and .def_172 (and .def_151 (and .def_148 (and .loc.11 (and .loc.10 (and .def_76 (and .loc.7 (and .loc.5 .def_339))))))))))))) (and .def_324 (and .def_198 (and .def_71 (and .def_153 (and .def_151 (and .def_148 (and .def_72 (and .loc.11 (and .loc.9 (and .def_76 (and .loc.7 (and .def_418 (and .def_235 (and .def_368 (and .def_158 (and .def_415 (and .def_232 (and .def_412 (and .def_229 (and .def_268 (and .def_226 (and .def_410 (and .def_407 (and .def_137 (and .def_365 (and .def_362 (and .def_359 (and .def_223 (and .def_270 (and .def_354 (and .def_405 (and .def_356 (and .def_400 (and .def_220 (and .def_303 .def_402)))))))))))))))))))))))))))))))))))) (and (or C2_18 .def_488) (and .def_324 (and .def_198 (and .def_71 (and .def_153 (and .def_151 (and .def_148 (and .def_72 (and .loc.11 (and .loc.9 (and .def_76 (and .loc.7 (and .def_418 (and .def_235 (and .def_368 (and .def_158 (and .def_415 (and .def_232 (and .def_412 (and .def_229 (and .def_268 (and .def_226 (and .def_410 (and .def_407 (and .def_137 (and .def_365 (and .def_362 (and .def_359 (and .def_223 (and .def_270 (and .def_354 (and .def_405 (and .def_356 (and .def_400 (and .def_220 (and .def_218 .def_402))))))))))))))))))))))))))))))))))))) (and (and (and (and (and (and (and (and .def_528 .def_536) .def_539) .def_542) .def_545) .def_548) .def_551) .def_554) .def_557)) (and (or C2_18 (and (= .x.1192 (store D_18 .x.1215 1)) (and (= .x.1196 (store H_18 .x.1215 4)) (and (= (select D_18 .x.1215) 0) (and (= .x.1230 .x.1240) (and (= .x.1212 .x.1215) (and (not (= .x.1215 0)) (and (= .x.1240 0) (and (not (<= .x.1215 A_18)) (not .def_488)))))))))) (and (or (or C2_22 (not (= .x.1212 0))) (not (= .x.1230 0))) (and (or C2_22 (and (and (and (and (= (+ M1_18 (* (- 1) .x.1227)) 1) (= .x.1230 .x.1242)) (= .x.1212 .x.1217)) (= .x.1200 (store L_18 .x.1212 (store (select L_18 .x.1212) .x.1230 B2_18)))) (= .x.1190 (store B_18 .x.1212 (store (select B_18 .x.1212) .x.1230 C1_18))))) (and .def_324 (and .def_198 (and .def_71 (and .def_172 (and .def_153 (and .def_151 (and .def_148 (and .def_72 (and .loc.11 (and .def_76 (and .loc.7 (and .def_418 (and .def_235 (and .def_368 (and .def_158 (and .def_415 (and .def_232 (and .def_412 (and .def_229 (and .def_268 (and .def_226 (and .def_410 (and .def_407 (and .def_137 (and .def_365 (and .def_362 (and .def_359 (and .def_223 (and .def_270 (and .def_354 (and .def_405 (and .def_356 (and .def_400 (and .def_220 .def_402)))))))))))))))))))))))))))))))))))))) .def_647) (and (or C2_18 (and (= .x.1242 0) (and (= W_18 .x.1238) (and (= .x.1227 .x.1238) (= .x.1217 0))))) (and .def_324 (and .def_198 (and .def_172 (and .def_153 (and .def_151 (and .def_148 (and .def_74 (and .loc.11 (and .def_76 (and .loc.6 (and .loc.5 (and .def_418 (and .def_235 (and .def_368 (and .def_158 (and .def_415 (and .def_232 (and .def_412 (and .def_229 (and .def_268 (and .def_226 (and .def_407 (and .def_137 (and .def_365 (and .def_362 (and .def_359 (and .def_223 (and .def_270 (and .def_354 (and .def_405 (and .def_356 (and .def_400 (and .def_220 .def_659))))))))))))))))))))))))))))))))))) (and .def_696 .def_698)) (and (or C2_18 (not O1_18)) (and .def_324 (and .def_153 (and .def_151 (and .def_148 (and .def_72 (and .def_74 (and .def_299 (and .loc.10 .def_738)))))))))) (and .def_324 (and .def_71 (and .def_153 (and .def_151 (and .def_148 (and .def_74 (and .def_299 (and .loc.10 (and .loc.9 (and .def_76 (and .loc.5 (and .def_557 (and .def_418 (and .def_554 (and .def_235 (and .def_647 (and .def_368 (and .def_158 (and .def_415 (and .def_232 (and .def_551 (and .def_696 (and .def_548 (and .def_545 (and .def_412 (and .def_229 (and .def_268 (and .def_226 (and .def_410 (and .def_407 (and .def_137 (and .def_365 (and .def_362 (and .def_542 (and .def_359 (and .def_539 (and .def_223 (and .def_270 (and .def_528 (and .def_354 (and .def_405 (and .def_356 (and .def_400 (and .def_698 (and .def_220 (and .def_402 (and .def_530 (and .def_534 (and .def_218 (and C2_18 .def_532))))))))))))))))))))))))))))))))))))))))))))))))))) (and (or C2_18 (= D2_3 .def_802)) (and (or C2_22 (and (and (and D2_3 (= .x.1229 (not (= .x.1205 0)))) (<= .x.1205 2147483647)) (<= (- 2147483648) .x.1205))) .def_856))) (and (or C2_18 (= .x.1229 .def_802)) (and .def_856 (or C2_22 (not .x.1229))))) (and (= W_18 .x.1211) (= T1_18 .x.1234))) (and (or C2_18 (and O1_18 (= (+ W_18 (* (- 1) .x.1211)) (- 1)))) (and .def_324 (and .def_198 (and .def_153 (and .def_151 (and .def_148 (and .def_72 (and .def_74 (and .def_299 .def_738)))))))))) (and (= F_18 .x.1194) (= J_18 .x.1198))) (and (or C2_18 (and (= .x.1192 (store D_18 0 0)) (and (= .x.1198 0) (= .x.1194 0)))) (and (or C2_22 (= .x.1211 2)) (and .def_324 (and .def_198 (and .def_71 (and .def_153 (and .def_148 (and .def_72 (and .def_74 (and .def_299 (and .loc.9 (and .def_76 (and .def_557 (and .def_554 (and .def_235 (and .def_647 (and .def_368 (and .def_232 (and .def_551 (and .def_548 (and .def_545 (and .def_229 (and .def_268 (and .def_226 (and .def_410 (and .def_137 (and .def_365 (and .def_362 (and .def_542 (and .def_359 (and .def_539 (and .def_223 (and .def_270 (and .def_528 (and .def_354 (and .def_405 (and .def_356 (and .def_400 (and .def_220 (and .def_402 .def_536)))))))))))))))))))))))))))))))))))))))))))))))))))))))))))))))))))))))))))))))))))))))))))))))))))))))))))))))) (state |.x.1189| |.x.1190| |.x.1191| |.x.1192| |.x.1193| |.x.1194| |.x.1195| |.x.1196| |.x.1197| |.x.1198| |.x.1199| |.x.1200| |.x.1201| |.x.1202| |.x.1203| |.x.1204| |.x.1205| |.x.1206| |.x.1207| |.x.1208| |.x.1209| |.x.1210| |.x.1211| |.x.1212| |.x.1213| |.x.1214| |.x.1215| |.x.1216| |.x.1217| |.x.1218| |.x.1219| |.x.1220| |.x.1221| |.x.1222| |.x.1223| |.x.1224| |.x.1225| |.x.1226| |.x.1227| |.x.1228| |.x.1229| |.x.1230| |.x.1231| |.x.1232| |.x.1233| |.x.1234| |.x.1235| |.x.1236| |.x.1237| |.x.1238| |.x.1239| |.x.1240| |.x.1241| |.x.1242| |C2_22| |.loc.9| |.loc.10| |.loc.11| |.loc.12| |.xtv.1| |.xtv.2|))))
(assert (forall ((|A_18| Int) (|B_18| (Array Int Int)) (|C_18| (Array Int Int)) (|D_18| (Array Int Int)) (|E_18| (Array Int Int)) (|F_18| Int) (|G_18| Int) (|H_18| (Array Int Int)) (|I_18| (Array Int Int)) (|J_18| Int) (|K_18| Int) (|L_18| (Array Int Int)) (|M_18| (Array Int Int)) (|N_18| Int) (|O_18| Int) (|D2_11| Int) (|Q_18| Int) (|R_18| Int) (|S_18| Int) (|T_18| Int) (|U_18| Int) (|V_18| Int) (|W_18| Int) (|X_18| Int) (|Y_18| Int) (|Z_18| Int) (|A1_18| Int) (|B1_18| Int) (|C1_18| Int) (|D1_18| Int) (|E1_18| Int) (|F1_18| Int) (|G1_18| Int) (|H1_18| Int) (|I1_18| Int) (|J1_18| Int) (|K1_18| Int) (|L1_18| Int) (|M1_18| Int) (|N1_18| Int) (|O1_18| Bool) (|P1_18| Int) (|Q1_18| Int) (|R1_18| Int) (|S1_18| Int) (|T1_18| Int) (|U1_18| Int) (|V1_18| Int) (|W1_18| Int) (|X1_18| Int) (|Y1_18| Int) (|Z1_18| Int) (|A2_18| Int) (|B2_18| Int) (|C2_18| Bool) (|.loc.5| Bool) (|.loc.6| Bool) (|.loc.7| Bool) (|.loc.8| Bool) (|D2_3| Bool) (|D2_13| Int) (|.x.1233| Int) (|.x.1210| Int) (|.x.1201| (Array Int Int)) (|.x.1199| Int) (|.x.1197| (Array Int Int)) (|.x.1195| Int) (|.x.1193| (Array Int Int)) (|.x.1189| Int) (|.x.1191| (Array Int Int)) (|.x.1211| Int) (|.x.1204| Int) (|C2_22| Bool) (|.x.1220| Int) (|.x.1237| Int) (|.x.1235| Int) (|.loc.9| Bool) (|.loc.10| Bool) (|.x.1192| (Array Int Int)) (|.x.1203| Int) (|.x.1214| Int) (|.x.1223| Int) (|.x.1225| Int) (|.x.1231| Int) (|.x.1239| Int) (|.x.1224| Int) (|.x.1213| Int) (|.x.1226| Int) (|.x.1221| Int) (|.loc.11| Bool) (|.loc.12| Bool) (|.x.1209| Int) (|.x.1207| Int) (|.x.1216| Int) (|.x.1218| Int) (|.x.1219| Int) (|.x.1236| Int) (|.x.1206| Int) (|.x.1202| Int) (|.x.1208| Int) (|.x.1222| Int) (|.x.1232| Int) (|.x.1241| Int) (|.x.1212| Int) (|.x.1200| (Array Int Int)) (|.x.1190| (Array Int Int)) (|.x.1196| (Array Int Int)) (|.x.1215| Int) (|.x.1217| Int) (|.x.1227| Int) (|.x.1228| Int) (|.x.1230| Int) (|.x.1240| Int) (|.x.1242| Int) (|.x.1238| Int) (|.x.1229| Bool) (|.x.1205| Int) (|.x.1234| Int) (|.x.1194| Int) (|.x.1198| Int) (|.xtv.1| Bool) (|.xtv.2| Int)) (=> (state |A_18| |B_18| |C_18| |D_18| |E_18| |F_18| |G_18| |H_18| |I_18| |J_18| |K_18| |L_18| |M_18| |N_18| |O_18| |D2_11| |Q_18| |R_18| |S_18| |T_18| |U_18| |V_18| |W_18| |X_18| |Y_18| |Z_18| |A1_18| |B1_18| |C1_18| |D1_18| |E1_18| |F1_18| |G1_18| |H1_18| |I1_18| |J1_18| |K1_18| |L1_18| |M1_18| |N1_18| |O1_18| |P1_18| |Q1_18| |R1_18| |S1_18| |T1_18| |U1_18| |V1_18| |W1_18| |X1_18| |Y1_18| |Z1_18| |A2_18| |B2_18| |C2_18| |.loc.5| |.loc.6| |.loc.7| |.loc.8| |D2_3| |D2_13|) (not (and C2_18 (and .loc.8 (and (not .loc.7) (and .loc.5 .loc.6))))))))
(check-sat)
